50	100	100	100
34	8	16
14	1	28
5	5	1
9	4	29
30	14	29
14	1	29
24	22	9
6	33	17
15	7	9
28	30	24
25	28	27
24	25	3
4	12	15
33	10	11
7	20	4
9	33	24
3	10	15
24	7	24
7	4	11
5	25	11
25	9	33
23	4	18
14	32	31
30	28	8
22	5	23
14	21	14
22	21	14
29	15	34
32	18	30
17	31	32
14	3	22
15	13	20
30	16	20
26	6	4
15	2	20
33	1	8
17	22	2
8	4	9
34	12	34
13	18	7
15	26	33
21	20	28
15	10	30
1	17	28
7	17	2
31	19	5
4	2	31
27	12	7
16	11	28
23	3	30
